50
150
99
98
98
97
97
95
94
93
91
91
88
87
82
80
80
79
79
79
75
74
73
72
71
69
68
66
63
63
61
60
58
58
55
54
53
53
52
50
46
45
44
42
40
38
37
35
29
24
24
20
